# AMPL MODEL: ./res/solid.ampl

# Timestamp: 17 February 2025, 10:29:47 AM

param MAXWORK := 32;

param:
TNAME: TWORK :=
'alpha.sf' 20
'alpha.sm' 40
'beta.sf' 20
'beta.sm' 40
'charlie.sf' 20
'charlie.sm' 60
'delta.sf' 20
'delta.sm' 20
'echo.sf' 32
'echo.sm' 20
'golf.sf' 32
'golf.sm' 40
'kilo.se' 60
'kilo.sf' 20
'kilo.sm' 40
'lima.se' 144
'lima.sf' 20
'lima.sm' 40
'mike.se' 60
'mike.sf' 20
'mike.sm' 40;

set TSCOPE['alpha.sf'] :=
93 94 95 98 99 100 101 102 105 106 107 108 109 112 113 114 115 116 119 120 121 123
;

set TSCOPE['alpha.sm'] :=
3 4 7 8 9 10 11 14 15 16 17 18 21 22 23 24 25 28 29 30 31 32 35 36 37 38 39 42 43 44 45 46 49 50 51 52 53 56 57 58 59 60 63 64 65 66 67 70 71 72
73 74 77 78 79 80 81 84 85 86 87 88 91 92
;

set TSCOPE['beta.sf'] :=
175 176 177 178 179 182 183 184 185 186 189 190 191 192 193 196 197 198 199 200 203 204 205 206 207 210 211 212 213 214 217 218
;

set TSCOPE['beta.sm'] :=
3 4 7 8 9 10 11 14 15 16 17 18 21 22 23 24 25 28 29 30 31 32 35 36 37 38 39 42 43 44 45 46 49 50 51 52 53 56 57 58 59 60 63 64 65 66 67 70 71 72
73 74 77 78 79 80 81 84 85 86 87 88 91 92 93 94 95 98 99 100 101 102 105 106 107 108 109 112 113 114 115 116 119 120 121 123 126 127 128 129 130 133 134 135 136 137 140 141 142 143
144 147 148 149 150 151 154 155 156 157 158 161 162 163 164 165 168 169 170 171 172
;

set TSCOPE['charlie.sf'] :=
158 161 162 163 164 165 168 169 170 171 172 175 176 177 178 179 182 183 184 185 186
;

set TSCOPE['charlie.sm'] :=
3 4 7 8 9 10 11 14 15 16 17 18 21 22 23 24 25 28 29 30 31 32 35 36 37 38 39 42 43 44 45 46 49 50 51 52 53 56 57 58 59 60 63 64 65 66 67 70 71 72
73 74 77 78 79 80 81 84 85 86 87 88 91 92 93 94 95 98 99 100 101 102 105 106 107 108 109 112 113 114 115 116 119 120 121 123 126 127 128 129 130 133 134 135 136 137 140 141 142 143
144 147 148 149 150 151 154 155 156 157
;

set TSCOPE['delta.sf'] :=
58 59 60 63 64 65 66 67 70 71 72 73 74 77 78 79 80 81 84 85 86 87 88 91 92 93 94 95 98 99 100 101 102
;

set TSCOPE['delta.sm'] :=
3 4 7 8 9 10 11 14 15 16 17 18 21 22 23 24 25 28 29 30 31 32 35 36 37 38 39 42 43 44 45 46 49 50 51 52 53 56 57
;

set TSCOPE['echo.sf'] :=
93 94 95 98 99 100 101 102 105 106 107 108 109 112 113 114 115 116 119 120 121 123 126 127 128 129 130 133 134 135 136 137
;

set TSCOPE['echo.sm'] :=
3 4 7 8 9 10 11 14 15 16 17 18 21 22 23 24 25 28 29 30 31 32 35 36 37 38 39 42 43 44 45 46 49 50 51 52 53 56 57 58 59 60 63 64 65 66 67 70 71 72
73 74
;

set TSCOPE['golf.sf'] :=
134 135 136 137 140 141 142 143 144 147 148 149 150 151 154 155 156 157 158 161 162 163 164 165 168 169 170 171 172 175 176 177 178 179
;

set TSCOPE['golf.sm'] :=
3 4 7 8 9 10 11 14 15 16 17 18 21 22 23 24 25 28 29 30 31 32 35 36 37 38 39 42 43 44 45 46 49 50 51 52 53 56 57 58 59 60 63 64 65 66 67 70 71 72
73 74 77 78 79 80 81 84 85 86 87 88 91 92 93 94 95 98 99 100 101 102 105 106 107 108 109 112 113 114 115 116 119 120 121 123 126 127 128 129 130 133
;

set TSCOPE['kilo.se'] :=
63 64 65 66 67 70 71 72 73 74 77 78 79 80 81 84
;

set TSCOPE['kilo.sf'] :=
217 218 219 220 221 224 225 226 227 228 231 232 233 234 235 238 239 240 241 242 245 246 247 248 249 252 253 254 255 256 259 260
;

set TSCOPE['kilo.sm'] :=
85 86 87 88 91 92 93 94 95 98 99 100 101 102 105 106 107 108 109 112 113 114 115 116 119 120 121 123 126 127 128 129 130 133 134 135 136 137 140 141 142 143 144 147 148 149 150 151 154 155
156 157 158 161 162 163 164 165 168 169 170 171 172 175 176 177 178 179 182 183 184 185 186 189 190 191 192 193 196 197 198 199 200 203 204 205 206 207 210 211 212 213 214
;

set TSCOPE['lima.se'] :=
81 84 85 86 87 88 91 92 93 94 95 98 99 100 101 102 105 106 107 108 109
;

set TSCOPE['lima.sf'] :=
308 309 310 311 312 315 316 317 318 319 322 323 324 325 326 329 330 331 332 333
;

set TSCOPE['lima.sm'] :=
112 113 114 115 116 119 120 121 123 126 127 128 129 130 133 134 135 136 137 140 141 142 143 144 147 148 149 150 151 154 155 156 157 158 161 162 163 164 165 168 169 170 171 172 175 176 177 178 179 182
183 184 185 186 189 190 191 192 193 196 197 198 199 200 203 204 205 206 207 210 211 212 213 214 217 218 219 220 221 224 225 226 227 228 231 232 233 234 235 238 239 240 241 242 245 246 247 248 249 252
253 254 255 256 259 260 261 262 263 266 267 268 269 270 273 274 275 276 277 280 281 282 283 284 287 288 289 290 291 294 295 296 297 298 301 302 303 304 305
;

set TSCOPE['mike.se'] :=
81 84 85 86 87 88 91 92 93 94 95 98 99 100 101 102 105 106 107 108 109
;

set TSCOPE['mike.sf'] :=
308 309 310 311 312 315 316 317 318 319 322 323 324 325 326 329 330 331 332 333
;

set TSCOPE['mike.sm'] :=
112 113 114 115 116 119 120 121 123 126 127 128 129 130 133 134 135 136 137 140 141 142 143 144 147 148 149 150 151 154 155 156 157 158 161 162 163 164 165 168 169 170 171 172 175 176 177 178 179 182
183 184 185 186 189 190 191 192 193 196 197 198 199 200 203 204 205 206 207 210 211 212 213 214 217 218 219 220 221 224 225 226 227 228 231 232 233 234 235 238 239 240 241 242 245 246 247 248 249 252
253 254 255 256 259 260 261 262 263 266 267 268 269 270 273 274 275 276 277 280 281 282 283 284 287 288 289 290 291 294 295 296 297 298 301 302 303 304 305
;

set ENAME :=
'SA.Adrian';

set ASSIGN :=
('SA.Adrian',*)
'alpha.sf'
'alpha.sm'
'beta.sf'
'beta.sm'
'charlie.sf'
'charlie.sm'
'delta.sf'
'delta.sm'
'echo.sf'
'echo.sm'
'golf.sf'
'golf.sm'
'kilo.se'
'kilo.sf'
'kilo.sm'
'lima.se'
'lima.sf'
'lima.sm'
'mike.se'
'mike.sf'
'mike.sm';

param:
XBID: XBEXPERT XBTASK XBS XBE XBL XBU :=
1 'SA.Adrian' 'alpha.sf' 93 123 0 1
2 'SA.Adrian' 'alpha.sm' 2 92 0 1
3 'SA.Adrian' 'beta.sf' 173 218 0 1
4 'SA.Adrian' 'beta.sm' 2 172 0 1
5 'SA.Adrian' 'charlie.sf' 158 188 0 1
6 'SA.Adrian' 'charlie.sm' 2 157 0 1
7 'SA.Adrian' 'delta.sf' 58 103 0 1
8 'SA.Adrian' 'delta.sm' 2 57 0 1
9 'SA.Adrian' 'echo.sf' 93 138 1 2
10 'SA.Adrian' 'echo.sm' 2 75 0 1
11 'SA.Adrian' 'golf.sf' 134 179 0 1
12 'SA.Adrian' 'golf.sm' 2 133 0 1
13 'SA.Adrian' 'kilo.se' 61 84 3 4
14 'SA.Adrian' 'kilo.sf' 215 260 0 1
15 'SA.Adrian' 'kilo.sm' 85 214 0 1
16 'SA.Adrian' 'lima.se' 81 110 6 7
17 'SA.Adrian' 'lima.sf' 307 335 1 2
18 'SA.Adrian' 'lima.sm' 111 306 0 1
19 'SA.Adrian' 'mike.se' 81 110 2 3
20 'SA.Adrian' 'mike.sf' 307 335 1 2
21 'SA.Adrian' 'mike.sm' 111 306 0 1;

param:
EBID: EBEXPERT EBS EBE EBL EBU :=
;

param:
PNAME: PERS PERE :=
'Jan.25' 1 16
'Feb.25' 17 45
'Mar.25' 46 76
'Apr.25' 77 105
'May.25' 106 139
'Jun.25' 140 170
'Jul.25' 171 199
'Aug.25' 200 230
'Sep.25' 231 259
'Oct.25' 260 289
'Nov.25' 290 317
'Dec.25' 318 346;

param:
EXPPER: PBL PBU :=
['SA.Adrian',*]
'Apr.25' 0 720
'Aug.25' 0 720
'Dec.25' 0 720
'Feb.25' 0 720
'Jan.25' 0 720
'Jul.25' 0 720
'Jun.25' 0 720
'Mar.25' 0 720
'May.25' 0 720
'Nov.25' 0 720
'Oct.25' 0 720
'Sep.25' 0 720;

